34291.8
0 107 70 27 87 19 50 6 40 124 118 38 68 138 114 128 76 147 142 9 59 64 41 81 83 131 69 11 49 125 135 99 5 143 32 132 102 17 55 121 33 15 22 97 119 106 85 89 91 65 133 148 95 146 37 84 8 110 112 98 92 61 3 30 14 123 80 137 75 54 16 82 116 46 4 105 13 57 62 72 66 29 141 63 130 67 43 21 149 93 127 58 12 90 96 18 144 140 139 78 42 48 100 53 28 26 35 23 51 134 136 74 10 101 86 94 109 73 129 7 108 103 56 36 31 45 104 25 113 20 2 126 79 111 71 122 24 145 115 60 77 120 117 47 39 44 52 88 1 34 
